17	4	3
11	11	9	11	40	60	8	
0	0	0	0	0	6	1	6	2	5	7	3	2	3	4
6	0	0	7	0	6	5	4	4	2	9	3	11	12	15
4	0	0	1	0	3	10	8	1	4	10	3	5	8	16
2	0	0	0	2	4	1	4	8	10	1	1	17
1	0	0	6	0	3	10	3	7	6	10	3	6	12	14
125	2	0	0	0	8	1	10	3	3	5	1	7
25	0	0	0	6	9	9	9	3	2	10	2	9	17
75	0	9	0	0	2	4	10	9	5	4	2	10	17
125	0	8	0	0	9	8	5	3	6	4	2	13	17
150	8	0	0	0	3	8	4	6	4	9	1	17
150	0	0	7	0	5	1	9	5	4	2	1	17
100	7	0	0	0	9	2	10	7	5	1	1	17
1	8	0	0	0	7	6	5	7	4	10	2	17	17
6	0	1	0	0	10	3	8	4	5	3	1	17
5	0	0	0	2	8	7	10	1	3	4	1	17
3	0	0	5	0	9	7	4	8	1	7	1	17
0	0	0	0	0	10	10	9	9	7	3	0
